# Input script of lammps that creates a hydrogel and then creates a shear deformation.

# Parallel configuration with pacakge OPENMP
# RUN: env OMP_NUM_THREADS=Nthreads mpirun -np NProcs lmp -sf omp -in

# Initialization
units lj
dimension 3
boundary p p p

# Styles of atoms and that stuff
atom_style bond
bond_style zero nocoeff
#pair_style hybrid/overlay/omp zero 0.0 lj/cut/omp 1.12 table/omp linear 5000000 threebody/table
pair_style hybrid/overlay/omp zero 0.0 table/omp linear 1000 table/omp linear 5000000 threebody/table
newton on

# Create simulaiton box
region simulation_box block -$L $L -$L $L -$L $L
# N-atom-types region-ID keyword value Is necesesary the extra/special/per/atom (# of special neighbors per atom)
create_box 4 simulation_box &
    bond/types 1 &
    extra/bond/per/atom 4 &
    extra/special/per/atom 5

# Atom types
mass 1 1.0      # CL 
mass 2 1.0      # MO
mass 3 0.5      # PA
mass 4 0.5      # PB

# Coefficients
include potential.in

# Molecules
include molecules.in

fix BrDy all rigid/nve/small molecule langevin $Temp $Temp $damp 12345 # Brownian Dynamics: langevin + nve

thermo ${sstep}

# COMPUTES

# Compute global kinetic and potential energy and temperature
compute t all temp
compute tCM CM temp
compute ep all pe
compute epCM CM pe
compute ek all ke
compute ekCM CM ke
compute stressVirial all pressure t ke pair
compute stressVirialCM CM pressure tCM keCM pair
compute wcaPair all pair table/omp 1 epair
compute patchPair all pair table/omp 2 epair
compute swapPair all pair threebody/table epair
compute H all enthalpy
compute HCM CM enthalpy
compute dis CM displace/atom
compute Vol all vol

# DUMPS and FIXES

# Save atom positions
dump dumpID all atom ${sstep} info/dumps/assembly/patchyParticles_assembly.*.dumpf
dump_modify dumpID pbc yes # remap atoms via periodic boundary conditions

# Save global energies and temperature
group Energy empty
fix fixEng Energy ave/time 1 10 10 c_tCM c_ep c_ek c_t file info/energy_assembly.fixf

# Save themodynamic variables
group thermoVar empty
fix fixThVar thermoVar ave/time 1 10 10 c_t c_ep c_ek c_H c_Vol file info/thermoVar_assembly.fixf

group thermoVarCM empty
fix fixThVarCM thermoVarCM ave/time 1 10 10 c_tCM c_epCM c_ekCM c_HCM c_Vol file info/thermoVarCM_assembly.fixf

group PairE1 empty
group PairE2 empty
group PairE3 empty

fix fixwca PairE1 ave/time 1 10 10 c_wcaPair file info/wcaPair_assembly.fixf
fix fixpatch PairE2 ave/time 1 10 10 c_patchPair file info/patchPair_assembly.fixf
fix fixswap PairE3 ave/time 1 10 10 c_swapPair file info/swapPair_assembly.fixf

# Save Atom displacement
group Displ empty
fix fixDispl Displ ave/time 1 ${Nave} ${Nave} c_dis[4] file info/cmdisplacement_assembly.fixf

# Save Stress tensor
group Stress empty
fix fixStress5 Stress ave/time 1 ${Nave} ${Nave} c_stressVirial[*] file info/stressVirial_assembly.fixf

# RUN SIMULATION

timestep ${tstep}
run ${steps}

# Write data for deformation

write_data data.hydrogel
