# Script to create a shear deformationgiven a data file

units lj
dimension 3
boundary p p p

# Styles of atoms and that stuff
atom_style bond
bond_style zero nocoeff
#pair_style hybrid/overlay/omp zero 0.0 lj/cut/omp 1.12 table/omp linear 5000000 threebody/table
pair_style hybrid/overlay/omp zero 0.0 table/omp linear 1000 table/omp linear 5000000 threebody/table
newton on

read_data data.hydrogel extra/bond/per/atom 4 extra/special/per/atom 5

change_box all triclinic

# Coefficients
include potential.in

# Molecules
include molDeform.in

fix BrDy all rigid/nve/small molecule langevin ${temp} ${temp} ${damp} 12345 # Brownian Dynamics: langevin + nve
fix_modify BrDy virial no

thermo ${sstep}

# COMPUTES

# Compute global kinetic and potential energy and temperature
compute t all temp
compute tCM CM temp
compute ep all pe
compute ek all ke
compute ekCM CM ke
compute stressVirial all pressure t ke pair
compute wcaPair all pair table/omp 1 epair
compute patchPair all pair table/omp 2 epair
compute swapPair all pair threebody/table epair
compute disc CM displace/atom
compute daux CM chunk/atom type pbc yes
compute dis CM reduce/chunk daux sum c_disc[4]
#compute disM CM reduce/chunk 2 sum c_disc[4]


# DUMPS and FIXES

# Save atom positions
dump dumpID all atom ${Nsave} info/dumps/shear/patchyParticles_shear.*.dumpf
dump_modify dumpID pbc yes # remap atoms via periodic boundary conditions

# Save global energies and temperature
group Energy empty
group PairE1 empty
group PairE2 empty
group PairE3 empty

fix fixEng Energy ave/time 1 10 10 c_t c_ep c_ek c_tCM file info/energy_shear.fixf

fix fixwca PairE1 ave/time 1 10 10 c_wcaPair file info/wcaPair_shear.fixf
fix fixpatch PairE2 ave/time 1 10 10 c_patchPair file info/patchPair_shear.fixf
fix fixswap PairE3 ave/time 1 10 10 c_swapPair file info/swapPair_shear.fixf

# Save Atom displacement
group Displ empty
fix fixDispl Displ ave/time 1 ${Nave} ${Nave} c_dis[1] c_dis[2] c_dis[3] c_dis[4] file info/cmdisplacement_shear.fixf

# Save Stress tensor
group Stress empty
fix fixStress5 Stress ave/time 1 ${Nave} ${Nave} c_stressVirial[*] file info/stressVirial_shear.fixf

# RUN SIMULATION

# Introduce deformation
fix shear all deform 1 xy erate ${shear_rate} remap x flip yes

# Run deformation
timestep ${tstep}
run ${shear_it}

# Stop deformation
unfix shear

# Relax time
run ${rlxT1}

# Introduce deformation
fix shear all deform 1 xy erate ${shear_rate} remap x flip yes

# Re-run deformation
timestep ${tstep}
run ${shear_it}

# Stop deformation
unfix shear

# Relax time
run ${rlxT2}

# Introduce deformation
fix shear all deform 1 xy erate ${shear_rate} remap x flip yes

# Re-run deformation
timestep ${tstep}
run ${shear_it}

# Stop deformation
unfix shear

# Relax time
run ${rlxT3}

# Introduce deformation
fix shear all deform 1 xy erate ${shear_rate} remap x flip yes

# Re-run deformation
timestep ${tstep}
run ${shear_it}

# Stop deformation
unfix shear

# Relax time
run ${rlxT4}

