# Script to create a shear deformationgiven a data file

units lj
dimension 3
boundary p p p

# Styles of atoms and that stuff
atom_style bond
bond_style zero nocoeff
pair_style hybrid/overlay/omp zero 0.0 lj/cut/omp 1.12 table/omp linear 5000000 threebody/table
newton on

# Varaibles
variable seed3 equal 3124
variable tstep equal 0.001
variable sstep equal 10000

read_data data.hydrogel extra/bond/per/atom 4 extra/special/per/atom 5

change_box all triclinic

# Coefficients
include potential.in

# Molecules
include molDeform.in

fix BrDy all rigid/nve/small molecule langevin 0.05 0.05 0.25 12345 # Brownian Dynamics: langevin + nve
fix_modify BrDy virial no

# Variables for the shear deformation
variable shear_rate equal 0.02    # Add 0.1% of the total lenght each time unit
variable max_strain equal 50
variable Nstep_per_strain equal (1/v_shear_rate)*(1/v_tstep)+1000
variable shear_it equal v_max_strain*v_Nstep_per_strain 
variable Nsave equal 500

# Introduce the deformation
fix shear all deform 1 xy erate ${shear_rate} remap x flip yes

thermo ${sstep}

# Compute global kinetic and potential energy and temperature
compute t all temp
compute ep all pe
compute ek all ke
compute stress all pressure t
compute stressKe all pressure t ke
compute stressPair all pressure NULL pair
compute stressFix all pressure NULL fix
compute stressVirial all pressure NULL virial
compute stressModify all pressure t ke pair 
variable tilt equal v_shear_rate*step*dt 

# Compute Cluster sizes
#compute cluster all aggregate/atom 0.6
#compute cc1 all chunk/atom c_cluster compress yes pbc yes
#compute size all property/chunk cc1 count

# Compute Voronoi/atom
#compute vorCompSimple CM voronoi/atom only_group
#compute vorCompHisto CM voronoi/atom only_group edge_histo 30 edge_threshold 0

# DUMPS and FIXES

# Save atom positions
dump dumpID all atom ${Nsave} info/patchyParticles_shear.dumpf
dump_modify dumpID pbc yes # remap atoms via periodic boundary conditions
#dump_modify dumpID delay ${steps}

# Write dump file of voronoi analysis of the last configuration
#dump dumpVor CM custom ${shear_it} info/voronoiSimple_shear.dumpf c_vorCompSimple[1] c_vorCompSimple[2]
#dump_modify dumpVor delay ${shear_it}

# Write fix file of voronoi histogram: Number of edges on the faces of the Voronoi cells
#fix fixvorHisto CM ave/time 1 1 ${shear_it} c_vorCompHisto file info/vorHisto_shear.fixf mode vector

# Save global energies and temperature
group Energy empty
fix fixEng Energy ave/time 1 1 10 c_t c_ep c_ek file info/energy_shear.fixf

# Save Stress tensor
group Stress empty
fix fixStress1 Stress ave/time 1 1000 1000 v_tilt c_stress[*] file info/stress_shear.fixf
fix fixStress2 Stress ave/time 1 1000 1000 v_tilt c_stressKe[*] file info/stressKe_shear.fixf
fix fixStress3 Stress ave/time 1 1000 1000 v_tilt c_stressPair[*] file info/stressPair_shear.fixf
fix fixStress4 Stress ave/time 1 1000 1000 v_tilt c_stressFix[*] file info/stressFix_shear.fixf
fix fixStress5 Stress ave/time 1 1000 1000 v_tilt c_stressVirial[*] file info/stressVirial_shear.fixf
fix fixStress6 Stress ave/time 1 1000 1000 v_tilt c_stressModify[*] file info/stressModify_shear.fixf


# Save the cluster sizes
#fix ID group-ID style Nevery Nrepeat Nfreq lo hi Nbin value1 value2
#fix 1 all ave/time 1 1 ${shear_it} c_size file info/sizeCluster_shear.fixf mode vector

# RUN SIMULATION
timestep ${tstep}
run ${shear_it}

