# Script to create a Polymer using Patchy Particles (PP)
# Types of Particles:
#   Cross linker:   PPA
#   Monomer:        PPB

# Initialization
units lj
dimension 3
boundary p p p

# Types of atoms and that stuff
atom_style full
bond_style zero nocoeff
pair_style hybrid/overlay lj/cut 2.5 sw threebody off
newton on

# Get data for box and particles
read_data data.patchyP1.lmp group CL1
read_data data.patchyP2.lmp add append group Mo1

displace_atoms Mo1 move 0.0 0.0 3.0 units box

# Set the patchy particle interaction
fix CLfix CL1 rigid single
fix Mofix Mo1 rigid single

pair_coeff * * sw Patchy.ws CL MO PA PB # i-type j-type pair-style
pair_coeff 1 1 lj/cut 1.0 1.0 1.12 # i-type j-type pair-style eps sigma cutoff
pair_coeff 2 2 lj/cut 1.0 1.0 1.12 # i-type j-type pair-style eps sigma cutoff
pair_coeff 1 2 lj/cut 1.0 1.0 1.12 # i-type j-type pair-style eps sigma cutoff
pair_coeff 3 3 none
pair_coeff 1 3 none
pair_coeff 1 4 none
pair_coeff 2 3 none
pair_coeff 2 4 none
#
#pair_coeff 4 4 sw Patchy.ws NULL NULL NULL PB # i-type j-type pair-style
#pair_coeff 3 4 sw 3 Patchy.ws PA PB # i-type j-type pair-style 
#pair_coeff 4 4 sw 3 Patchy.ws PB PB # i-type j-type eps sigma cutoff wca
#pair_coeff 1 2 sw Patchy.ws CL MO NULL NULL# i-type j-type pair-style


# Neighbor list
neighbor 0.3 bin # extra-distance style
#neigh_modify delay 5

minimize 1.0e-4 1.0e-6 1000 10000 # etol ftol maxiter maxeval

fix 1 all langevin 1.0 1.0 50.0 12345
fix 2 all nve

thermo 50
compute t all temp
compute ep all pe
compute ek all ke
compute tm all momentum

dump 1 all atom 50 dump.patchy_pairs1_ng

timestep 0.005
run 1000