# Script to create a Polymer using Patchy Particles (PP)
# Types of Particles:
# 1:    Cross Linker
# 2:    Patchy A (Cross Linker)
# 3:    Monomer
# 4:    PAtchy B (Monomer)

# Initialization
units lj
dimension 3
boundary p p p

# Varaibles
variable L equal 5
variable seed1 equal 1234
variable seed2 equal 4321

# Types of atoms and that stuff
atom_style bond
bond_style zero nocoeff
pair_style hybrid/overlay wf/cut 2.0 sw threebody off
newton on

# Get data for box and particles
read_data data.patchyParticles.lmp

# Group the atmos into molecules group polyA molecul
group CL molecule 1
group MO molecule 2

#fix ID group-ID style args
#    ID = user-assigned name for the fix
#    group-ID = ID of the group of atoms to apply the fix to
#    style = one of a long list of possible style names (see below)
#    args = arguments used by a particular style

fix fCl CL rigid/small molecule #mol CL
fix fMO MO rigid/small molecule #mol MO

# Coefficients
bond_coeff * 2.14
pair_coeff 1 1 wf/cut 1.0 1.0 1 1 2.0 # i-type j-type pair-style eps sigma up mu cutoff
pair_coeff 2 2 wf/cut 1.0 1.0 1 1 2.0 # i-type j-type pair-style eps sigma cutoff
pair_coeff 1 2 wf/cut 1.0 1.0 1 1 2.0 # i-type j-type pair-style eps sigma cutoff
pair_coeff 3 3 none
pair_coeff 1 3 none
pair_coeff 1 4 none
pair_coeff 2 3 none
pair_coeff 2 4 none
pair_coeff 3 4 sw Patchy.ws NULL NULL PA PB # i-type j-type pair-style 
pair_coeff 4 4 sw Patchy.ws NULL NULL NULL PB # i-type j-type eps sigma cutoff wca

# Neighbor list
neighbor 1 bin # extra-distance style
#neigh_modify delay 5
neigh_modify exclude molecule/intra CL
neigh_modify exclude molecule/intra MO

#minimize 1.0e-4 1.0e-6 1000 10000 # etol ftol maxiter maxeval

fix fLangevin all langevin 10.0 10.0 100.0 12345 # ID group-ID langevin Tstart Tstop damp seed
#fix nve all nve
#fix mynve all nve #Dinamica NVE
compute Temp CL temp

thermo 50
#compute t all temp
#compute ep all pe
#compute ek all ke
#compute tm all momentum

dump 1 all atom 100 dump.start_v2

timestep 0.001
run 1000000