
units lj
dimension 3
atom_style angle
angle_style harmonic
bond_style fene
boundary p p p

neighbor 0.3 nsq
neigh_modify delay 5

read_data data.polymer1.lmp

minimize 1.0e-4 1.0e-6 1000 10000

fix 1 all langevin 1.0 1.0 50.0 12345
fix 2 all nve

thermo 50

dump 1 all atom 50 dump.polymer

timestep 0.001
run 100000
