# Script to create a Polymer using Patchy Particles (PP)
# Types of Particles:
#   Cross linker:   PPA
#   Monomer:        PPB

# Initialization
units lj
dimension 3
boundary p p p

# Styles of atoms and that stuff
atom_style bond
bond_style zero nocoeff
pair_style hybrid/overlay lj/cut 1.12 sw threebody off
newton on

# Varaibles
variable L equal 4.5
variable NCL equal 50
variable NMO equal 100
variable seed1 equal 1234
variable seed2 equal 4321
variable seed3 equal 3124

# Create simulaiton box
region simulation_box block -$L $L -$L $L -$L $L
# N-atom-types region-ID keyword value Is necesesary the extra/special/per/atom (# of special neighbors per atom)
create_box 4 simulation_box &
    bond/types 1 &
    extra/bond/per/atom 4 &
    extra/special/per/atom 5

# Atom types
mass 1 1.0      # CL 
mass 2 1.0      # MO
mass 3 0.5      # PA
mass 4 0.5      # PB

# Coefficients
bond_coeff * nocoeff
pair_coeff 1 1 lj/cut 1.0 1.0 1.12 # i-type j-type pair-style eps sigma cutoff
pair_coeff 2 2 lj/cut 1.0 1.0 1.12 # i-type j-type pair-style eps sigma cutoff
pair_coeff 1 2 lj/cut 1.0 1.0 1.12 # i-type j-type pair-style eps sigma cutoff
pair_coeff 1 3 none
pair_coeff 1 4 none
pair_coeff 2 3 none
pair_coeff 2 4 none
#pair_coeff 3 4 sw Patchy.ws NULL NULL PA PB # i-type j-type pair-style 
#pair_coeff 3 3 sw Patchy.ws NULL NULL PA NULL
#pair_coeff 4 4 sw Patchy.ws NULL NULL NULL PB # i-type j-type eps sigma cutoff wca
pair_coeff 3 4 sw Patchy2.ws NULL NULL PA PB # i-type j-type pair-style 
pair_coeff 3 3 sw Patchy2.ws NULL NULL PA PA
pair_coeff 4 4 sw Patchy2.ws NULL NULL PB PB # i-type j-type eps sigma cutoff wca

pair_modify shift yes

# Molecules
molecule CL molecule.patchy.CL
molecule MO molecule.patchy.MO

# Introduce the molecules
# ID style args keyword arg
region spawn_box block -$L $L -$L $L -$L $L

# create_atoms type style args keyword values
# style_random: N seed region-ID
# keyword_mol: template-ID seed
# keyword_overlap: overlap value = only insert if at least this distance from all existing atoms
# keyword_maxtry: maxtry value = number of attempts to insert a particle before failure
create_atoms 0 random ${NCL} ${seed1} spawn_box mol CL ${seed1} overlap 0.5 maxtry 5000 #xls
create_atoms 0 random ${NMO} ${seed2} spawn_box mol MO ${seed2} overlap 0.5 maxtry 5000 #mon

# Create patchy particles
#group CrossLinker molecule <> 1 1# group polyA molecule <> 50 250
#group Monomer molecule <> 2 2# group polyA molecule <> 50 250
group CrossLinker type 1 3
group Monomer type 2 4
# fix		1 addatoms rigid/small molecule mol dimer
#fix pCl CrossLinker rigid/small molecule mol CL
#fix pMO Monomer rigid/small molecule mol MO
#fix pCL CrossLinker rigid/small molecule # ID group-ID style bodystyle args keyword values
#fix pCL Monomer rigid/small molecule # ID group-ID style bodystyle args keyword values
fix pCL CrossLinker rigid/small molecule #langevin 1.0 1.0 100.0 ${seed3}
fix pMO Monomer rigid/small molecule #langevin 1.0 1.0 100.0 ${seed3}


# Neighbor list
neighbor 0.3 bin # extra-distance style
#neigh_modify delay 5
neigh_modify exclude molecule/intra CrossLinker
neigh_modify exclude molecule/intra Monomer

#minimize 1.0e-4 1.0e-6 1000 10000 # etol ftol maxiter maxeval

fix langevinFix all langevin 0.1 0.1 10000.0 12345 # ID group-ID langevin Tstart Tstop damp seed
#fix nve all nve
#fix 2 all nve

thermo 1500

compute T all temp
compute Ke all ke/atom
compute Pe all pe/atom
compute VorAll all voronoi/atom neighbors yes

#compute ID group-ID pair pstyle [nstyle] [evalue]
compute PairljCL CrossLinker pair lj/cut
compute PairswCL CrossLinker pair sw
compute PairljMO Monomer pair lj/cut
compute PairswMO Monomer pair sw

# compute ID group-ID cluster/atom cutoff
  compute cluster all cluster/atom 0.5

# compute ID group-ID chunk/atom style args keyword value
  compute cc1 all chunk/atom c_cluster compress yes

# compute ID group-ID property/chunk chunkID input1 input2
  compute size all property/chunk cc1 count

# This computes takes into consideration that the patchy particles are defined via fix rigid.
#compute KerigidCL CrossLinker ke/rigid pCL
#compute KerigidMO Monomer ke/rigid pMO
#compute ID group-ID chunk/atom style args keyword
#compute chunk_CL CrossLinker chunk/atom molecule pbc yes
#compute chunk_MO Monomer chunk/atom molecule pbc yes

#compute ID group-ID reduce/chunk chunkID mode
#compute chunk_rCL CrossLinker chunk/atom c_Ke pbc yes
#compute chunk_rCL CrossLinker reduce/chunk chunk_CL sum c_Ke

dump dumpID all atom 500 dump.patchyParticles
dump_modify dumpID pbc yes # remap atoms via periodic boundary conditions
dump dumpVoronio all local 1 dump.voronoipatchyParticles index c_VorAll[1] c_VorAll[2] c_VorAll[3]
dump dumpEnergy all custom 500 dump.Energy id type c_Ke c_Pe


#fix ID group-ID ave/time Nevery Nrepeat Nfreq
#fix Ke CrossLinker ave/time 1 1 1 c_chunk_rCL file fix.Ke
group PAIRScomputes empty
fix Pair_c PAIRScomputes ave/time 1 1 1 c_PairljCL c_PairswCL c_PairljMO c_PairswMO file fix.pairenergy

# fix ID group-ID style Nevery Nrepeat Nfreq lo hi Nbin value1 value2
fix 1 all ave/histo 1 1 1 0 20 20 c_size mode vector ave running beyond ignore file tmp.histo


#fix ID group-ID ave/chunk Nevery Nrepeat Nfreq chunkID
#fix TCL CrossLinker ave/chunk 1 1 1 chunk_CL temp norm none file fix.TempCL

#fix KeCL CrossLinker ave/chunk 1 1 1 chunk_CL c_Ke file fix.KeCL
#fix PeCL CrossLinker ave/chunk 1 1 1 chunk_CL c_Pe file fix.PeCL

#fix KeCL CrossLinker ave/chunk 1 1 1 chunkR_Ke c_chunkR_Ke file fix.KeCL

timestep 0.1
run 10