# Script to create a Polymer using Patchy Particles (PP)
# Types of Particles:
#   Cross linker:   PPA
#   Monomer:        PPB

# Initialization
units lj
dimension 3
boundary p p p

# Types of atoms and that stuff
atom_style full
bond_style zero nocoeff
pair_style hybrid lj/cut 2.5 cosine/squared 2.5 zero 2.5

# Get data for box and particles
read_data data.patchyP1.lmp group CL1
read_data data.patchyP2.lmp add append group Mo1
read_data data.patchyP2.lmp add append group Mo2
read_data data.patchyP2.lmp add append group Mo3
read_data data.patchyP2.lmp add append group Mo4
read_data data.patchyP2.lmp add append group Mo5
read_data data.patchyP2.lmp add append group Mo6

displace_atoms Mo1 move 0.0 0.0 3.0 units box
displace_atoms Mo2 move 0.0 0.0 -3.0 units box
displace_atoms Mo3 move 0.0 3.0 0.0 units box
displace_atoms Mo4 move 0.0 -3.0 0.0 units box
displace_atoms Mo5 move 3.5 0.0 0.0 units box
displace_atoms Mo6 move -3.5 0.0 0.0 units box

# Set the patchy particle interaction
fix CLfix CL1 rigid single # ID group-ID style args
fix Mofix1 Mo1 rigid single
fix Mofix2 Mo2 rigid single
fix Mofix3 Mo3 rigid single
fix Mofix4 Mo4 rigid single
fix Mofix5 Mo5 rigid single
fix Mofix6 Mo6 rigid single

pair_coeff 1 1 zero 2.24
pair_coeff 2 2 zero 2.24
pair_coeff 3 3 zero 2.24
pair_coeff 1 3 zero 1.68
pair_coeff 1 4 zero 1.68
pair_coeff 2 3 zero 1.68
pair_coeff 2 4 zero 1.68
pair_coeff 1 2 lj/cut 1.0 1.0 2.24 # i-type j-type eps sigma cutoff
pair_coeff 3 4 cosine/squared 10.0 0.5 0.56 wca # i-type j-type eps sigma cutoff wca
pair_coeff 4 4 cosine/squared 10.0 0.5 0.56 wca # i-type j-type eps sigma cutoff wca

# Neighbor list
neighbor 0.3 bin # extra-distance style
#neigh_modify delay 5

minimize 1.0e-4 1.0e-6 1000 10000 # etol ftol maxiter maxeval

fix 1 all langevin 1.0 1.0 50.0 12345
fix 2 all nve

thermo 50
compute t all temp
compute ep all pe
compute ek all ke
compute tm all momentum

dump 1 all atom 50 dump.patchy_pairs2

timestep 0.001
run 100000