# Script to create a Polymer using Patchy Particles (PP)
# Types of Particles:
#   Cross linker:   PPA
#   Monomer:        PPB

# Initialization
units lj
dimension 3
boundary p p p

# Types of atoms and that stuff
atom_style full
bond_style zero nocoeff
pair_style hybrid lj/cut 2.5 cosine/squared 2.5 zero 2.5

# Get data for box and particles
read_data data.patchyP1.lmp group CL1
read_data data.patchyP2.lmp add merge group Mo1

displace_atoms Mo1 move 0.0 0.0 3.0 units box

# Set the patchy particle interaction
fix CLfix CL1 rigid single
fix Mofix Mo1 rigid single

pair_coeff 1 1 lj/cut 1.0 1.0 1.12 # i-type j-type eps sigma cutoff
pair_coeff 2 2 cosine/squared 10.0 0.5 0.56 wca # i-type j-type eps sigma cutoff wca
pair_coeff 1 2 zero 1.68

# Get data for box and particles
#read_data data.patchyP2.lmp add append shift 0.0 5.0 0.0

# Set the patchy particle interaction
#group Mo type 5 6 7
#fix Mofix Mo rigid single


# Neighbor list
neighbor 0.3 nsq
neigh_modify delay 5

minimize 1.0e-4 1.0e-6 1000 10000

fix 1 all langevin 1.0 1.0 50.0 12345
fix 2 all nve

thermo 50
compute t all temp
compute ep all pe
compute ek all ke
compute tm all momentum

dump 1 all atom 50 dump.patchy_pairs1

timestep 0.005
run 100000