# Input script of lammps that creates a hydrogel and then creates a shear deformation.

# Parallel configuration with pacakge OPENMP
# RUN: env OMP_NUM_THREADS=Nthreads mpirun -np NProcs lmp -sf omp -in

# Initialization
units lj
dimension 3
boundary p p p

# Styles of atoms and that stuff
atom_style bond
bond_style zero nocoeff
pair_style hybrid/overlay/omp zero 0.0 lj/cut/omp 1.12 table/omp linear 5000000 threebody/table
newton on

# Create simulaiton box
region simulation_box block -$L $L -$L $L -$L $L
# N-atom-types region-ID keyword value Is necesesary the extra/special/per/atom (# of special neighbors per atom)
create_box 4 simulation_box &
    bond/types 1 &
    extra/bond/per/atom 4 &
    extra/special/per/atom 5

# Atom types
mass 1 1.0      # CL 
mass 2 1.0      # MO
mass 3 0.5      # PA
mass 4 0.5      # PB

# Coefficients
include potential.in

# Molecules
include molecules.in

fix BrDy all rigid/nve/small molecule langevin 0.05 0.05 1 12345 # Brownian Dynamics: langevin + nve

thermo ${sstep}

# COMPUTES

# Compute global kinetic and potential energy and temperature
compute t all temp
compute ep all pe
compute ek all ke
compute blAll Patches pair table/omp 3 epair
compute blCl PA pair table/omp 3 epair

# DUMPS and FIXES

# Save atom positions
dump dumpID all atom ${steps} info/patchyParticles_assembly.dumpf
dump_modify dumpID pbc yes # remap atoms via periodic boundary conditions
dump_modify dumpID delay ${steps}

# Save global energies and temperature
group Energy empty
fix fixEng Energy ave/time 1 10 10 c_t c_ep c_ek file info/energy_assembly.fixf

group BL1 empty
group BL2 empty

fix fixBLg BL1 ave/time 1 10 10 c_blAll file info/bondlenPatch_assembly.fixf
fix fixBLc BL2 ave/time 1 10 10 c_blCl file info/bondlenCL_assembly.fixf



# RUN SIMULATION

timestep ${tstep}
run ${steps}

# Write data for deformation

write_data data.hydrogel

