# LAMMPS script for shear deformation simulaiton

# Fco. Vazquez and Felipe Benavides

units lj
dimension 3
boundary p p p

# Styles of atoms and that stuff
atom_style bond
bond_style zero nocoeff
pair_style hybrid/overlay/omp zero 0.0 lj/cut/omp 1.122462 table/omp linear 5000000 threebody/table
newton on

read_data data.hydrogel extra/bond/per/atom 4 extra/special/per/atom 5

change_box all triclinic

# Coefficients
include potential.in

# Molecules
include molDeform.in

# COMPUTES

# Compute global kinetic and potential energy and temperature
compute t all temp
compute td all temp/deform
compute p all pressure t
compute ep all pe
compute ek all ke
variable eT equal etotal
variable ec equal ecouple
variable eC equal econserve
variable H equal enthalpy
compute stressVirial all pressure t ke pair
compute wcaPair all pair lj/cut/omp epair
compute patchPair all pair table/omp epair
compute swapPair all pair threebody/table epair

# Displacement of the central particles
compute disc CM displace/atom
compute daux CM chunk/atom type pbc yes
compute dis CM reduce/chunk daux sum c_disc[4]
#compute disM CM reduce/chunk 2 sum c_disc[4]

# Cluster analysis
compute clPatch Patches cluster/atom 0.6

# DUMPS and FIXES

thermo ${NsaveStress}

# Save global energies and temperature
group Energy empty
fix fixEng Energy ave/time 1 ${Nsave} ${Nsave} c_t c_wcaPair c_patchPair c_swapPair c_ep c_ek v_eT v_ec v_eC c_p v_H file ${Dir}/${file6_name}

# Save Stress tensor
group Stress empty
fix fixStress5 Stress ave/time 1 ${NsaveStress} ${NsaveStress} c_stressVirial[*] file ${Dir}/${file7_name}

# Save the cluster information
fix fixCluster Patches ave/atom 1 ${Nsave} ${Nsave} c_clPatch
dump dmpCluster Patches custom ${Ndump} ${Dir}/${file8_name} f_fixCluster

# Save atom positions
dump dumpID all custom ${Ndump} ${Dir}/traj/${file9_name} id type x y z vx vy vz
dump_modify dumpID pbc yes # remap atoms via periodic boundary conditions

# Save Atom displacement
#group Displ empty
#fix fixDispl Displ ave/time 1 ${NsaveStress} ${NsaveStress} c_dis[1] c_dis[2] c_dis[3] c_dis[4] file ${Dir}/cmdisplacement_assembly.fixf

# Save Atom displacement
#group Displ empty
#fix fixDispl Displ ave/time 1 ${NsaveStress} ${NsaveStress} c_dis[1] c_dis[2] c_dis[3] c_dis[4] file ${Dir}/cmdisplacement_shear.fixf

# RUN SIMULATION

# Brownian Dynamics using Langevin Thermostat

timestep ${tstep}

fix rigidBodies all rigid/nve/small molecule langevin ${temp} ${temp} ${damp} ${seed3} 
fix_modify rigidBodies virial no temp td # No contribution to the stress

fix shear all deform 1 xy erate ${shear_rate} remap x flip yes units box
run ${shear_it}
unfix shear

write_data ${file10_name}

run ${rlxT1}

fix shear all deform 1 xy erate ${shear_rate} remap x flip yes units box
run ${shear_it}
unfix shear

run ${rlxT2}

fix shear all deform 1 xy erate ${shear_rate} remap x flip yes units box
run ${shear_it}
unfix shear

run ${rlxT3}

