# Script to simulate a Lennard Jonnes Fluid

# 1) Initialization
units lj
dimension 3
atom_style atomic
pair_style lj/cut 2.5
boundary p p p
neighbor 0.3 nsq
neigh_modify delay 5

# 2) System definition
region simulation_box block -20 20 -20 20 -20 20
create_box 2 simulation_box
create_atoms 1 random 1500 341341 simulation_box
create_atoms 2 random 100 127569 simulation_box

# 3) Simulation settings
mass 1 1
mass 2 1
pair_coeff 1 1 1.0 1.0
pair_coeff 2 2 0.5 3.0

# 4) Visualization
thermo 1000
variable kinetic_energy equal ke
variable potencial_energy equal pe
variable pressure equal press
#fix myat1 all ave/time 10 1 10 v_kinetic_energy v_potential_energy file energy.dat
dump mydump all atom 1000 dump.lammpstrj

# 5) Run
fix mynve all nve
fix mylgv all langevin 1.0 1.0 0.1 1530917
timestep 0.005
run 10000

C:\Users\paco5\OneDrive - Instituto Tecnologico y de Estudios Superiores de Monterrey\maestria\materias\1_SimComp\hw3\dump.lammpstrj