# LAMMPS script for shear deformation simulaiton

# Fco. Vazquez and Felipe Benavides

units lj
dimension 3
boundary p p p

# Styles of atoms and that stuff
atom_style full 
bond_style harmonic
angle_style harmonic
pair_style hybrid/overlay zero 0.0 lj/cut 1.12 table linear 5000000 threebody/table
newton on

read_data ${dataDir}/data.hydrogel extra/bond/per/atom 10 extra/angle/per/atom 6 extra/special/per/atom 10

change_box all triclinic

# Coefficients
include potential.in

# Molecules
include molDeform.in

# COMPUTES

# Compute global kinetic and potential energy and temperature
compute t all temp
compute td all temp/deform
compute p all pressure t
compute ep all pe
compute ek all ke
variable eT equal etotal
variable eB equal ebond
variable eA equal eangle
variable H equal enthalpy
variable eM equal emol
variable ec equal ecouple
variable eC equal econserve

# Potential energy per pair-wise interaction
compute wcaPair all pair lj/cut epair
compute patchPair all pair table epair
compute swapPair all pair threebody/table epair

# Compute the pressure
compute press all pressure td ke virial
compute pressVirial all pressure td virial
compute pressVirialMod all pressure td pair bond angle

# Compute the stress 
compute cstress all stress/atom td ke pair bond angle
compute cstressVirial all stress/atom td virial
compute cstressVirialMod all stress/atom td pair bond angle
compute stress all reduce sum c_cstress[*]
compute stressVirial all reduce sum c_cstressVirial[*]
compute stressVirialMod all reduce sum c_cstressVirialMod[*]

# Displacement of the central particles
compute disp CM displace/atom
compute redDisp CM reduce ave c_disp[*] # All, because yes

# Get the number of central particles per cluster
compute clusters all aggregate/atom 0.6                             # Create the clusters
compute Nclpart CM chunk/atom c_clusters compress yes discard yes   # Get the number of clusters
compute clsize CM property/chunk Nclpart count                      # Counts the atoms in each chunk
compute idcl CM property/chunk Nclpart id                           # Get the ids of the clusters

# Discretize the height into small boxes
compute spatialChunks CM chunk/atom bin/3d x lower 1 y lower 1 z center ${bin_y} nchunk every units reduced

# DUMPS and FIXES

thermo ${NsaveStress}

# Save global energies and temperature
fix fixEng all ave/time 1 ${Nsave} ${Nsave} c_td c_wcaPair c_patchPair c_swapPair c_ep c_ek v_eT v_ec v_eC c_p v_eB v_eA v_eM v_H c_redDisp[*] file ${Dir}/${file7_name}

# Save Pressure and Stress tensor
fix fixStress5 all ave/time 1 ${NsaveStress} ${NsaveStress} c_p c_press[*] c_pressVirial[*] c_pressVirialMod[*] c_stress[*] c_stressVirial[*] c_stressVirialMod[*] file ${Dir}/${file8_name}

# Save the global cluster information
fix 1 CM ave/time 1 1 ${Ndump} c_idcl c_clsize file ${Dir}/${file9_name} mode vector

# The ave/chunk creates a temporal average. The ave keyword creates a spatial average.
fix fixChunks CM ave/chunk 1 ${Nsave} ${Nsave} spatialChunks vx vy vz c_disp[*] ave one file ${Dir}/${file10_name}

# Save atom positions
dump dumpID all custom ${Ndump} ${Dir}/traj/${file11_name} id mol c_clusters type x y z vx vy vz
dump_modify dumpID pbc yes # remap atoms via periodic boundary conditions

# RUN SIMULATION

# Brownian Dynamics using Langevin Thermostat

timestep ${tstep}

fix VelVerlet all nve # Use Velocity Verlet integrator
fix ThermoLng all langevin ${temp} ${temp} ${damp} ${seed3} zero yes # Brownian Dynamics: langevin + nve
fix_modify ThermoLng temp td

fix shear all deform 1 xy erate ${shear_rate} remap x flip yes units box
run ${shear_it}
unfix shear

write_data ${Dir}/${file10_name}

run ${rlxT1}

fix shear all deform 1 xy erate ${shear_rate} remap x flip yes units box
run ${shear_it}
unfix shear

run ${rlxT2}

fix shear all deform 1 xy erate ${shear_rate} remap x flip yes units box
run ${shear_it}
unfix shear

run ${rlxT3}
